jobs 122 
horizon 619 
PRECEDENCE:
1    
2    1
3    1
4    1
5    4
6    4
7    6
8    5
9    8
10    8
11    9
12    11
13    11
14    3
15    7
16    11
17    7
18    14
19    8
20    15
21    3
22    14 16 20
23    16
24    20 23
25    5
26    6 12
27    2 9
28    21
29    3
30    23
31    19
32    19
33    5
34    26
35    10
36    18
37    12 36
38    32
39    2
40    19
41    29
42    16
43    42
44    7 43
45    10 17 34
46    45
47    29
48    27
49    18
50    13 30 37
51    4 29
52    18 38
53    44 46
54    24 41 47
55    48
56    10
57    41 55
58    12
59    23 33 41
60    21 37
61    2 28 50
62    6 47 59
63    54 57 59
64    22 30
65    57 60 61
66    46 58
67    44 57 61
68    27 51
69    26 64
70    22 26 39
71    25 36
72    49 50 70
73    14 46
74    56 70 71
75    50 54 60
76    20 58 73
77    47 67 72
78    39 73 75
79    22 63 76
80    40 65 67
81    63 75 76
82    38 54 74
83    15 35 68
84    9
85    43 68 74
86    44 75 85
87    56 62 64
88    40 84 85
89    66 73 84
90    69 70 81
91    53 88 89
92    30 31 88
93    79 81 92
94    55 78 88
95    66 77 93
96    28 48 82
97    24 65 72
98    32 87 95
99    62 74 79
100    53 63 85
101    36 62 79
102    17 67 82
103    61 99 100
104    42 82 101
105    49 101 103
106    53 72 83
107    40 103 106
108    38 80 101
109    66 81 97
110    86 99 108
111    87 104 106
112    31 78 110
113    58 94 102
114    21 25 39
115    25 90 108
116    52 98 105
117    56 109 115
118    96 100 111
119    89 116 117
120    107 112 114
121    91 113 118
122    119 120 121
RESOURCEAVAILABILITY 17
REQUESTS/DURATIONS: 
 1 0 0 
 2 7 0 
 3 4 0 
 4 5 1 
 5 5 10 
 6 10 2 
 7 9 0 
 8 8 5 
 9 7 5 
 10 10 8 
 11 7 2 
 12 9 4 
 13 2 0 
 14 6 2 
 15 1 6 
 16 5 4 
 17 2 4 
 18 5 0 
 19 1 0 
 20 3 5 
 21 3 2 
 22 10 0 
 23 1 6 
 24 7 10 
 25 6 6 
 26 6 0 
 27 7 6 
 28 7 0 
 29 7 7 
 30 2 6 
 31 10 6 
 32 9 2 
 33 1 9 
 34 9 5 
 35 4 7 
 36 4 0 
 37 4 0 
 38 4 2 
 39 5 8 
 40 6 1 
 41 3 0 
 42 8 0 
 43 7 10 
 44 1 7 
 45 1 9 
 46 2 8 
 47 6 5 
 48 3 3 
 49 4 0 
 50 2 0 
 51 1 0 
 52 7 7 
 53 3 1 
 54 1 0 
 55 2 6 
 56 10 9 
 57 7 0 
 58 6 6 
 59 3 7 
 60 7 8 
 61 3 9 
 62 9 8 
 63 9 2 
 64 5 2 
 65 3 1 
 66 1 3 
 67 8 0 
 68 3 0 
 69 3 0 
 70 9 0 
 71 4 4 
 72 7 7 
 73 10 2 
 74 7 0 
 75 1 2 
 76 9 10 
 77 7 8 
 78 5 1 
 79 3 0 
 80 5 6 
 81 4 7 
 82 8 0 
 83 7 4 
 84 4 8 
 85 2 8 
 86 5 4 
 87 4 0 
 88 3 0 
 89 4 8 
 90 3 0 
 91 6 0 
 92 5 1 
 93 7 4 
 94 7 10 
 95 3 9 
 96 3 8 
 97 9 2 
 98 2 10 
 99 1 2 
100 9 1 
101 9 0 
102 9 9 
103 5 0 
104 5 10 
105 7 0 
106 3 9 
107 9 3 
108 1 5 
109 7 0 
110 5 0 
111 4 5 
112 1 1 
113 6 6 
114 1 9 
115 4 8 
116 6 0 
117 4 8 
118 3 0 
119 10 0 
120 5 6 
121 6 5 
122 0 0 
